# |V| = 12
# |E| = 41
# Prob((i,j)) = 0.600000

set V:=
1
2
3
4
5
6
7
8
9
10
11
12
;
param: E: w :=
1 2 46
1 3 46
1 4 10
1 5 37
1 6 58
1 7 12
1 8 39
1 9 40
1 10 9
1 11 8
1 12 84
2 5 58
2 8 63
2 9 84
2 10 57
2 12 42
3 11 27
4 5 3
4 6 95
4 7 94
4 9 42
4 10 38
4 11 7
5 6 77
5 7 67
5 8 76
5 10 91
5 11 31
5 12 25
6 7 8
6 10 11
7 8 79
7 9 69
7 10 99
7 11 30
7 12 67
8 11 43
8 12 1
9 10 18
9 12 41
10 12 45
;
